50
    1    47    74
    2    83    71
    3    25    61
    4     9    58
    5    14    35
    6    98    92
    7    34    60
    8     4    70
    9    95    84
   10    43    89
   11   100     6
   12    32    66
   13    12    19
   14    35    39
   15    36    83
   16     9    27
   17    35    96
   18    99    11
   19    27    28
   20    66    33
   21    54    76
   22    80    54
   23    77    79
   24    29    89
   25    70     7
   26     3    27
   27    57    33
   28    20    26
   29    23    24
   30    77    62
   31    90    96
   32    25    70
   33    89    82
   34    56    16
   35    80    95
   36    54    60
   37    46    23
   38    44    35
   39    51    23
   40    76    17
   41    17    58
   42    18    88
   43     2    89
   44    64    20
   45    39    98
   46    96    45
   47     9    76
   48    17    76
   49     9    38
   50    30    63
1373
